2476, 0, 0, 68, 2
2477, 0, 1, 82, 0
2478, 0, 2, 98, 1
2479, 0, 3, 70, 3
2480, 0, 4, 80, 4
2481, 1, 0, 97, 3
2482, 1, 1, 42, 4
2483, 1, 2, 83, 1
2484, 1, 3, 72, 0
2485, 1, 4, 52, 2
2486, 2, 0, 37, 0
2487, 2, 1, 79, 2
2488, 2, 2, 74, 4
2489, 2, 3, 68, 1
2490, 2, 4, 56, 3
2491, 3, 0, 90, 4
2492, 3, 1, 73, 0
2493, 3, 2, 39, 2
2494, 3, 3, 50, 3
2495, 3, 4, 76, 1